30
0 1 0.77 0.42
0 2 0.82 0.22
0 3 0.56 0.22
0 4 0.54 0.22
0 5 0.66 0.34
0 6 0.76 0.38
0 7 0.65 0.24
0 8 0.64 0.16
0 9 0.6 0.24
0 10 0.76 0.04
0 11 0.51 0.21
0 12 0.56 0.26
0 13 0.44 0.3
0 14 0.4 0.05
0 15 0.56 0.19
0 16 0.58 0.2
0 17 0.6 0.31
0 18 0.63 0.1
0 19 0.84 0.26
0 20 0.36 0.22
0 21 0.69 0.18
0 22 0.68 0.27
0 23 0.34 0.24
0 24 0.75 0.34
0 25 0.4 0.2
0 26 0.72 0.09
0 27 0.83 0.3
0 28 0.57 0.24
0 29 0.54 0.2
1 2 0.5 0.34
1 3 0.8 0.28
1 4 0.42 0.22
1 5 0.23 0.1
1 6 0.63 0.14
1 7 0.42 0.24
1 8 0.58 0.36
1 9 0.51 0.24
1 10 0.64 0.38
1 11 0.69 0.27
1 12 0.7 0.26
1 13 0.64 0.38
1 14 0.38 0.37
1 15 0.64 0.25
1 16 0.66 0.3
1 17 0.73 0.35
1 18 0.58 0.39
1 19 0.22 0.2
1 20 0.41 0.34
1 21 0.52 0.31
1 22 0.67 0.35
1 23 0.47 0.4
1 24 0.45 0.32
1 25 0.7 0.22
1 26 0.6 0.4
1 27 0.66 0.32
1 28 0.5 0.34
1 29 0.52 0.38
2 3 0.69 0.25
2 4 0.34 0.21
2 5 0.55 0.24
2 6 0.3 0.2
2 7 0.72 0.23
2 8 0.43 0.06
2 9 0.44 0.23
2 10 0.72 0.18
2 11 0.55 0.2
2 12 0.59 0.16
2 13 0.78 0.24
2 14 0.48 0.17
2 15 0.5 0.18
2 16 0.56 0.23
2 17 0.57 0.3
2 18 0.59 0.2
2 19 0.67 0.25
2 20 0.66 0.12
2 21 0.74 0.12
2 22 0.68 0.22
2 23 0.64 0.22
2 24 0.44 0.3
2 25 0.58 0.34
2 26 0.4 0.21
2 27 0.63 0.26
2 28 0.6 0.27
2 29 0.7 0.1
3 4 0.66 0.18
3 5 0.79 0.35
3 6 0.39 0.34
3 7 0.48 0.2
3 8 0.51 0.19
3 9 0.29 0.2
3 10 0.6 0.18
3 11 0.51 0.23
3 12 0.46 0.24
3 13 0.6 0.25
3 14 0.69 0.19
3 15 0.46 0.21
3 16 0.36 0.02
3 17 0.34 0.28
3 18 0.64 0.26
3 19 0.63 0.14
3 20 0.58 0.25
3 21 0.6 0.27
3 22 0.47 0.15
3 23 0.46 0.28
3 24 0.5 0.31
3 25 0.5 0.34
3 26 0.53 0.23
3 27 0.5 0.24
3 28 0.67 0.06
3 29 0.75 0.27
4 5 0.65 0.25
4 6 0.64 0.29
4 7 0.84 0.02
4 8 0.48 0.2
4 9 0.6 0.02
4 10 0.46 0.18
4 11 0.62 0.05
4 12 0.64 0.12
4 13 0.69 0.21
4 14 0.28 0.19
4 15 0.67 0.03
4 16 0.86 0.16
4 17 0.78 0.15
4 18 0.66 0.21
4 19 0.62 0.04
4 20 0.76 0.14
4 21 0.44 0.09
4 22 0.57 0.21
4 23 0.75 0.19
4 24 0.63 0.18
4 25 0.56 0.2
4 26 0.6 0.18
4 27 0.72 0.19
4 28 0.74 0.2
4 29 0.56 0.22
5 6 0.4 0.04
5 7 0.65 0.27
5 8 0.66 0.3
5 9 0.74 0.27
5 10 0.68 0.33
5 11 0.62 0.28
5 12 0.8 0.36
5 13 0.44 0.28
5 14 0.61 0.32
5 15 0.62 0.27
5 16 0.84 0.37
5 17 0.73 0.25
5 18 0.56 0.29
5 19 0.45 0.29
5 20 0.38 0.24
5 21 0.52 0.33
5 22 0.44 0.33
5 23 0.66 0.3
5 24 0.58 0.22
5 25 0.49 0.14
5 26 0.5 0.34
5 27 0.78 0.24
5 28 0.73 0.41
5 29 0.52 0.28
6 7 0.42 0.31
6 8 0.49 0.26
6 9 0.57 0.31
6 10 0.5 0.37
6 11 0.51 0.24
6 12 0.61 0.33
6 13 0.72 0.24
6 14 0.66 0.36
6 15 0.46 0.26
6 16 0.61 0.36
6 17 0.62 0.21
6 18 0.64 0.33
6 19 0.74 0.33
6 20 0.74 0.2
6 21 0.7 0.32
6 22 0.61 0.34
6 23 0.64 0.26
6 24 0.67 0.18
6 25 0.36 0.18
6 26 0.7 0.38
6 27 0.47 0.25
6 28 0.84 0.38
6 29 0.53 0.24
7 8 0.4 0.2
7 9 0.58 0.01
7 10 0.86 0.2
7 11 0.52 0.07
7 12 0.56 0.14
7 13 0.54 0.23
7 14 0.64 0.21
7 15 0.57 0.05
7 16 0.78 0.18
7 17 0.63 0.17
7 18 0.79 0.23
7 19 0.58 0.06
7 20 0.36 0.14
7 21 0.52 0.11
7 22 0.71 0.23
7 23 0.58 0.17
7 24 0.35 0.2
7 25 0.35 0.18
7 26 0.46 0.17
7 27 0.81 0.21
7 28 0.76 0.22
7 29 0.68 0.24
8 9 0.46 0.21
8 10 0.78 0.12
8 11 0.39 0.16
8 12 0.16 0.1
8 13 0.74 0.3
8 14 0.42 0.11
8 15 0.39 0.18
8 16 0.67 0.17
8 17 0.48 0.24
8 18 0.39 0.18
8 19 0.36 0.2
8 20 0.28 0.06
8 21 0.74 0.18
8 22 0.62 0.16
8 23 0.56 0.16
8 24 0.59 0.25
8 25 0.66 0.32
8 26 0.67 0.15
8 27 0.5 0.28
8 28 0.36 0.21
8 29 0.28 0.08
9 10 0.5 0.2
9 11 0.54 0.07
9 12 0.48 0.14
9 13 0.59 0.23
9 14 0.62 0.2
9 15 0.49 0.05
9 16 0.48 0.18
9 17 0.61 0.17
9 18 0.42 0.23
9 19 0.66 0.06
9 20 0.73 0.15
9 21 0.5 0.11
9 22 0.64 0.23
9 23 0.46 0.18
9 24 0.79 0.2
9 25 0.74 0.19
9 26 0.79 0.16
9 27 0.79 0.21
9 28 0.38 0.22
9 29 0.53 0.24
10 11 0.59 0.17
10 12 0.72 0.22
10 13 0.8 0.33
10 14 0.66 0.01
10 15 0.54 0.15
10 16 0.5 0.16
10 17 0.34 0.27
10 18 0.68 0.08
10 19 0.56 0.22
10 20 0.62 0.18
10 21 0.7 0.21
10 22 0.71 0.23
10 23 0.48 0.21
10 24 0.54 0.3
10 25 0.74 0.24
10 26 0.8 0.05
10 27 0.48 0.31
10 28 0.42 0.2
10 29 0.66 0.18
11 12 0.23 0.11
11 13 0.42 0.2
11 14 0.73 0.18
11 15 0.05 0.02
11 16 0.7 0.21
11 17 0.25 0.14
11 18 0.49 0.16
11 19 0.55 0.09
11 20 0.67 0.1
11 21 0.55 0.08
11 22 0.58 0.2
11 23 0.54 0.2
11 24 0.53 0.17
11 25 0.66 0.25
11 26 0.5 0.2
11 27 0.37 0.18
11 28 0.61 0.25
11 29 0.6 0.24
12 13 0.65 0.21
12 14 0.51 0.21
12 15 0.23 0.09
12 16 0.82 0.26
12 17 0.43 0.14
12 18 0.55 0.27
12 19 0.52 0.16
12 20 0.44 0.16
12 21 0.58 0.15
12 22 0.56 0.09
12 23 0.72 0.26
12 24 0.47 0.15
12 25 0.58 0.28
12 26 0.68 0.25
12 27 0.44 0.18
12 28 0.52 0.3
12 29 0.44 0.18
13 14 0.68 0.32
13 15 0.47 0.18
13 16 0.78 0.27
13 17 0.62 0.09
13 18 0.61 0.36
13 19 0.42 0.25
13 20 0.46 0.3
13 21 0.25 0.12
13 22 0.4 0.21
13 23 0.63 0.37
13 24 0.34 0.06
13 25 0.69 0.23
13 26 0.9 0.28
13 27 0.69 0.13
13 28 0.7 0.31
13 29 0.52 0.29
14 15 0.68 0.16
14 16 0.7 0.17
14 17 0.63 0.28
14 18 0.78 0.09
14 19 0.58 0.23
14 20 0.68 0.17
14 21 0.72 0.2
14 22 0.6 0.22
14 23 0.47 0.22
14 24 0.35 0.31
14 25 0.8 0.25
14 26 0.6 0.04
14 27 0.44 0.32
14 28 0.6 0.21
14 29 0.7 0.19
15 16 0.72 0.19
15 17 0.2 0.12
15 18 0.44 0.18
15 19 0.5 0.07
15 20 0.64 0.12
15 21 0.5 0.06
15 22 0.59 0.18
15 23 0.58 0.22
15 24 0.48 0.15
15 25 0.71 0.23
15 26 0.45 0.18
15 27 0.42 0.16
15 28 0.6 0.23
15 29 0.55 0.25
16 17 0.56 0.29
16 18 0.28 0.24
16 19 0.62 0.12
16 20 0.52 0.23
16 21 0.87 0.25
16 22 0.58 0.17
16 23 0.78 0.3
16 24 0.44 0.32
16 25 0.71 0.35
16 26 0.89 0.21
16 27 0.79 0.25
16 28 0.49 0.04
16 29 0.39 0.25
17 18 0.46 0.3
17 19 0.51 0.19
17 20 0.44 0.24
17 21 0.6 0.18
17 22 0.64 0.23
17 23 0.75 0.34
17 24 0.28 0.03
17 25 0.56 0.14
17 26 0.65 0.3
17 27 0.23 0.04
17 28 0.7 0.27
17 29 0.57 0.2
18 19 0.41 0.25
18 20 0.66 0.24
18 21 0.59 0.24
18 22 0.86 0.31
18 23 0.61 0.29
18 24 0.64 0.33
18 25 0.68 0.3
18 26 0.77 0.13
18 27 0.69 0.34
18 28 0.66 0.28
18 29 0.11 0.1
19 20 0.55 0.18
19 21 0.67 0.13
19 22 0.59 0.22
19 23 0.69 0.23
19 24 0.23 0.22
19 25 0.63 0.24
19 26 0.58 0.22
19 27 0.44 0.23
19 28 0.28 0.16
19 29 0.3 0.18
20 21 0.63 0.18
20 22 0.66 0.22
20 23 0.52 0.1
20 24 0.71 0.24
20 25 0.38 0.26
20 26 0.51 0.21
20 27 0.67 0.28
20 28 0.64 0.27
20 29 0.56 0.14
21 22 0.65 0.2
21 23 0.38 0.28
21 24 0.48 0.18
21 25 0.54 0.28
21 26 0.68 0.16
21 27 0.44 0.18
21 28 0.58 0.29
21 29 0.62 0.22
22 23 0.72 0.32
22 24 0.4 0.24
22 25 0.36 0.19
22 26 0.92 0.26
22 27 0.41 0.26
22 28 0.61 0.21
22 29 0.8 0.24
23 24 0.47 0.31
23 25 0.42 0.3
23 26 0.74 0.26
23 27 0.82 0.38
23 28 0.76 0.34
23 29 0.55 0.24
24 25 0.58 0.17
24 26 0.81 0.33
24 27 0.51 0.07
24 28 0.51 0.3
24 29 0.53 0.23
25 26 0.67 0.29
25 27 0.53 0.1
25 28 0.78 0.33
25 29 0.57 0.24
26 27 0.52 0.34
26 28 0.69 0.25
26 29 0.79 0.23
27 28 0.47 0.23
27 29 0.74 0.24
28 29 0.58 0.29
